Solver command line: []

Read LP format model from file C:\Users\wlhlm\AppData\Local\Temp\tmp2q5l_r8f.pyomo.lp
Reading time = 2.50 seconds
objective: 976704 rows, 875999 columns, 2211846 nonzeros
Set parameter MIPGap to value 0.02
Gurobi Optimizer version 12.0.1 build v12.0.1rc0 (win64 - Windows 11.0 (26100.2))

CPU model: Intel(R) Core(TM) Ultra 7 258V, instruction set [SSE2|AVX|AVX2]
Thread count: 8 physical cores, 8 logical processors, using up to 8 threads

Non-default parameters:
MIPGap  0.02

Optimize a model with 976704 rows, 875999 columns and 2211846 nonzeros
Model fingerprint: 0x13c2fe05
Model has 8759 quadratic constraints
Variable types: 753360 continuous, 122639 integer (105120 binary)
Coefficient statistics:
  Matrix range     [7e-03, 2e+02]
  QMatrix range    [1e+00, 1e+00]
  Objective range  [1e-02, 5e+02]
  Bounds range     [1e+00, 3e+00]
  RHS range        [8e-05, 1e+04]
Presolve removed 774598 rows and 647600 columns
Presolve time: 0.57s
Presolved: 202106 rows, 228399 columns, 629389 nonzeros
Variable types: 153981 continuous, 74418 integer (65658 binary)
Performing another presolve...
Presolve removed 70090 rows and 70091 columns (presolve time = 7s)...
Presolve removed 70090 rows and 70091 columns
Presolve time: 7.50s
Deterministic concurrent LP optimizer: primal and dual simplex
Showing primal log only...


Root simplex log...

Iteration    Objective       Primal Inf.    Dual Inf.      Time
       0    6.2827635e+07   4.525661e+06   4.383867e+13      9s
   19091    6.2559193e+07   8.105841e+05   1.979347e+13     10s
Concurrent spin time: 0.00s

Solved with dual simplex

Root simplex log...

Iteration    Objective       Primal Inf.    Dual Inf.      Time
   64155    5.2821335e+07   0.000000e+00   0.000000e+00     13s

Root relaxation: objective 5.282133e+07, 64155 iterations, 3.90 seconds (5.19 work units)
Total elapsed time = 12.84s (DegenMoves)

    Nodes    |    Current Node    |     Objective Bounds      |     Work
 Expl Unexpl |  Obj  Depth IntInf | Incumbent    BestBd   Gap | It/Node Time

     0     0 5.2821e+07    0  467          - 5.2821e+07      -     -   15s
H    0     0                    5.301766e+07 5.2821e+07  0.37%     -   16s

Explored 1 nodes (70413 simplex iterations) in 16.61 seconds (21.07 work units)
Thread count was 8 (of 8 available processors)

Solution count 1: 5.30177e+07 

Optimal solution found (tolerance 2.00e-02)
Best objective 5.301766362902e+07, best bound 5.282133498111e+07, gap 0.3703%

